p cnf 229 1383
-1 0
-2 0
-9 0
-2 -3 -16 0
2 3 -16 0
-2 3 16 0
2 -3 16 0
-2 -4 -17 0
2 4 -17 0
-2 4 17 0
2 -4 17 0
-2 -5 -18 0
2 5 -18 0
-2 5 18 0
2 -5 18 0
-2 -6 -19 0
2 6 -19 0
-2 6 19 0
2 -6 19 0
-2 -7 -20 0
2 7 -20 0
-2 7 20 0
2 -7 20 0
-2 -8 -21 0
2 8 -21 0
-2 8 21 0
2 -8 21 0
-3 -4 -22 0
3 4 -22 0
-3 4 22 0
3 -4 22 0
-3 -5 -23 0
3 5 -23 0
-3 5 23 0
3 -5 23 0
-3 -6 -24 0
3 6 -24 0
-3 6 24 0
3 -6 24 0
-3 -7 -25 0
3 7 -25 0
-3 7 25 0
3 -7 25 0
-3 -8 -26 0
3 8 -26 0
-3 8 26 0
3 -8 26 0
-4 -5 -27 0
4 5 -27 0
-4 5 27 0
4 -5 27 0
-4 -6 -28 0
4 6 -28 0
-4 6 28 0
4 -6 28 0
-4 -7 -29 0
4 7 -29 0
-4 7 29 0
4 -7 29 0
-4 -8 -30 0
4 8 -30 0
-4 8 30 0
4 -8 30 0
-5 -6 -31 0
5 6 -31 0
-5 6 31 0
5 -6 31 0
-5 -7 -32 0
5 7 -32 0
-5 7 32 0
5 -7 32 0
-5 -8 -33 0
5 8 -33 0
-5 8 33 0
5 -8 33 0
-6 -7 -34 0
6 7 -34 0
-6 7 34 0
6 -7 34 0
-6 -8 -35 0
6 8 -35 0
-6 8 35 0
6 -8 35 0
-7 -8 -36 0
7 8 -36 0
-7 8 36 0
7 -8 36 0
-9 -10 -37 0
9 10 -37 0
-9 10 37 0
9 -10 37 0
-9 -11 -38 0
9 11 -38 0
-9 11 38 0
9 -11 38 0
-9 -12 -39 0
9 12 -39 0
-9 12 39 0
9 -12 39 0
-9 -13 -40 0
9 13 -40 0
-9 13 40 0
9 -13 40 0
-9 -14 -41 0
9 14 -41 0
-9 14 41 0
9 -14 41 0
-9 -15 -42 0
9 15 -42 0
-9 15 42 0
9 -15 42 0
-10 -11 -43 0
10 11 -43 0
-10 11 43 0
10 -11 43 0
-10 -12 -44 0
10 12 -44 0
-10 12 44 0
10 -12 44 0
-10 -13 -45 0
10 13 -45 0
-10 13 45 0
10 -13 45 0
-10 -14 -46 0
10 14 -46 0
-10 14 46 0
10 -14 46 0
-10 -15 -47 0
10 15 -47 0
-10 15 47 0
10 -15 47 0
-11 -12 -48 0
11 12 -48 0
-11 12 48 0
11 -12 48 0
-11 -13 -49 0
11 13 -49 0
-11 13 49 0
11 -13 49 0
-11 -14 -50 0
11 14 -50 0
-11 14 50 0
11 -14 50 0
-11 -15 -51 0
11 15 -51 0
-11 15 51 0
11 -15 51 0
-12 -13 -52 0
12 13 -52 0
-12 13 52 0
12 -13 52 0
-12 -14 -53 0
12 14 -53 0
-12 14 53 0
12 -14 53 0
-12 -15 -54 0
12 15 -54 0
-12 15 54 0
12 -15 54 0
-13 -14 -55 0
13 14 -55 0
-13 14 55 0
13 -14 55 0
-13 -15 -56 0
13 15 -56 0
-13 15 56 0
13 -15 56 0
-14 -15 -57 0
14 15 -57 0
-14 15 57 0
14 -15 57 0
57 36 55 -58 0
57 36 -55 58 0
57 -36 55 58 0
57 -36 -55 -58 0
-57 36 55 58 0
-57 36 -55 -58 0
-57 -36 55 -58 0
-57 -36 -55 58 0
-57 -36 59 0
-57 -55 59 0
-36 -55 59 0
57 36 -59 0
57 55 -59 0
36 55 -59 0
58 34 52 -60 0
58 34 -52 60 0
58 -34 52 60 0
58 -34 -52 -60 0
-58 34 52 60 0
-58 34 -52 -60 0
-58 -34 52 -60 0
-58 -34 -52 60 0
-58 -34 61 0
-58 -52 61 0
-34 -52 61 0
58 34 -61 0
58 52 -61 0
34 52 -61 0
60 31 48 -62 0
60 31 -48 62 0
60 -31 48 62 0
60 -31 -48 -62 0
-60 31 48 62 0
-60 31 -48 -62 0
-60 -31 48 -62 0
-60 -31 -48 62 0
-60 -31 63 0
-60 -48 63 0
-31 -48 63 0
60 31 -63 0
60 48 -63 0
31 48 -63 0
62 27 43 -64 0
62 27 -43 64 0
62 -27 43 64 0
62 -27 -43 -64 0
-62 27 43 64 0
-62 27 -43 -64 0
-62 -27 43 -64 0
-62 -27 -43 64 0
-62 -27 65 0
-62 -43 65 0
-27 -43 65 0
62 27 -65 0
62 43 -65 0
27 43 -65 0
64 22 42 -66 0
64 22 -42 66 0
64 -22 42 66 0
64 -22 -42 -66 0
-64 22 42 66 0
-64 22 -42 -66 0
-64 -22 42 -66 0
-64 -22 -42 66 0
-64 -22 67 0
-64 -42 67 0
-22 -42 67 0
64 22 -67 0
64 42 -67 0
22 42 -67 0
66 21 37 -68 0
66 21 -37 68 0
66 -21 37 68 0
66 -21 -37 -68 0
-66 21 37 68 0
-66 21 -37 -68 0
-66 -21 37 -68 0
-66 -21 -37 68 0
-66 -21 69 0
-66 -37 69 0
-21 -37 69 0
66 21 -69 0
66 37 -69 0
21 37 -69 0
69 67 65 -70 0
69 67 -65 70 0
69 -67 65 70 0
69 -67 -65 -70 0
-69 67 65 70 0
-69 67 -65 -70 0
-69 -67 65 -70 0
-69 -67 -65 70 0
-69 -67 71 0
-69 -65 71 0
-67 -65 71 0
69 67 -71 0
69 65 -71 0
67 65 -71 0
70 63 61 -72 0
70 63 -61 72 0
70 -63 61 72 0
70 -63 -61 -72 0
-70 63 61 72 0
-70 63 -61 -72 0
-70 -63 61 -72 0
-70 -63 -61 72 0
-70 -63 73 0
-70 -61 73 0
-63 -61 73 0
70 63 -73 0
70 61 -73 0
63 61 -73 0
16 68 1 -74 0
16 68 -1 74 0
16 -68 1 74 0
16 -68 -1 -74 0
-16 68 1 74 0
-16 68 -1 -74 0
-16 -68 1 -74 0
-16 -68 -1 74 0
-16 -68 75 0
-16 -1 75 0
-68 -1 75 0
16 68 -75 0
16 1 -75 0
68 1 -75 0
59 72 75 -76 0
59 72 -75 76 0
59 -72 75 76 0
59 -72 -75 -76 0
-59 72 75 76 0
-59 72 -75 -76 0
-59 -72 75 -76 0
-59 -72 -75 76 0
-59 -72 77 0
-59 -75 77 0
-72 -75 77 0
59 72 -77 0
59 75 -77 0
72 75 -77 0
71 73 77 -78 0
71 73 -77 78 0
71 -73 77 78 0
71 -73 -77 -78 0
-71 73 77 78 0
-71 73 -77 -78 0
-71 -73 77 -78 0
-71 -73 -77 78 0
-71 -73 79 0
-71 -77 79 0
-73 -77 79 0
71 73 -79 0
71 77 -79 0
73 77 -79 0
1 79 -80 0
1 -79 80 0
-1 79 -80 0
-1 -79 80 0
-1 81 0
-1 -79 81 0
-1 -79 81 0
1 -81 0
1 79 -81 0
1 79 -81 0
-81 0
-74 0
-76 0
-78 0
80 0
56 35 53 -82 0
56 35 -53 82 0
56 -35 53 82 0
56 -35 -53 -82 0
-56 35 53 82 0
-56 35 -53 -82 0
-56 -35 53 -82 0
-56 -35 -53 82 0
-56 -35 83 0
-56 -53 83 0
-35 -53 83 0
56 35 -83 0
56 53 -83 0
35 53 -83 0
82 32 49 -84 0
82 32 -49 84 0
82 -32 49 84 0
82 -32 -49 -84 0
-82 32 49 84 0
-82 32 -49 -84 0
-82 -32 49 -84 0
-82 -32 -49 84 0
-82 -32 85 0
-82 -49 85 0
-32 -49 85 0
82 32 -85 0
82 49 -85 0
32 49 -85 0
84 28 47 -86 0
84 28 -47 86 0
84 -28 47 86 0
84 -28 -47 -86 0
-84 28 47 86 0
-84 28 -47 -86 0
-84 -28 47 -86 0
-84 -28 -47 86 0
-84 -28 87 0
-84 -47 87 0
-28 -47 87 0
84 28 -87 0
84 47 -87 0
28 47 -87 0
86 26 44 -88 0
86 26 -44 88 0
86 -26 44 88 0
86 -26 -44 -88 0
-86 26 44 88 0
-86 26 -44 -88 0
-86 -26 44 -88 0
-86 -26 -44 88 0
-86 -26 89 0
-86 -44 89 0
-26 -44 89 0
86 26 -89 0
86 44 -89 0
26 44 -89 0
88 23 41 -90 0
88 23 -41 90 0
88 -23 41 90 0
88 -23 -41 -90 0
-88 23 41 90 0
-88 23 -41 -90 0
-88 -23 41 -90 0
-88 -23 -41 90 0
-88 -23 91 0
-88 -41 91 0
-23 -41 91 0
88 23 -91 0
88 41 -91 0
23 41 -91 0
90 20 38 -92 0
90 20 -38 92 0
90 -20 38 92 0
90 -20 -38 -92 0
-90 20 38 92 0
-90 20 -38 -92 0
-90 -20 38 -92 0
-90 -20 -38 92 0
-90 -20 93 0
-90 -38 93 0
-20 -38 93 0
90 20 -93 0
90 38 -93 0
20 38 -93 0
93 91 89 -94 0
93 91 -89 94 0
93 -91 89 94 0
93 -91 -89 -94 0
-93 91 89 94 0
-93 91 -89 -94 0
-93 -91 89 -94 0
-93 -91 -89 94 0
-93 -91 95 0
-93 -89 95 0
-91 -89 95 0
93 91 -95 0
93 89 -95 0
91 89 -95 0
94 87 85 -96 0
94 87 -85 96 0
94 -87 85 96 0
94 -87 -85 -96 0
-94 87 85 96 0
-94 87 -85 -96 0
-94 -87 85 -96 0
-94 -87 -85 96 0
-94 -87 97 0
-94 -85 97 0
-87 -85 97 0
94 87 -97 0
94 85 -97 0
87 85 -97 0
17 92 1 -98 0
17 92 -1 98 0
17 -92 1 98 0
17 -92 -1 -98 0
-17 92 1 98 0
-17 92 -1 -98 0
-17 -92 1 -98 0
-17 -92 -1 98 0
-17 -92 99 0
-17 -1 99 0
-92 -1 99 0
17 92 -99 0
17 1 -99 0
92 1 -99 0
83 96 99 -100 0
83 96 -99 100 0
83 -96 99 100 0
83 -96 -99 -100 0
-83 96 99 100 0
-83 96 -99 -100 0
-83 -96 99 -100 0
-83 -96 -99 100 0
-83 -96 101 0
-83 -99 101 0
-96 -99 101 0
83 96 -101 0
83 99 -101 0
96 99 -101 0
95 97 101 -102 0
95 97 -101 102 0
95 -97 101 102 0
95 -97 -101 -102 0
-95 97 101 102 0
-95 97 -101 -102 0
-95 -97 101 -102 0
-95 -97 -101 102 0
-95 -97 103 0
-95 -101 103 0
-97 -101 103 0
95 97 -103 0
95 101 -103 0
97 101 -103 0
1 103 -104 0
1 -103 104 0
-1 103 -104 0
-1 -103 104 0
-1 105 0
-1 -103 105 0
-1 -103 105 0
1 -105 0
1 103 -105 0
1 103 -105 0
-105 0
-98 0
-100 0
-102 0
104 0
54 33 51 -106 0
54 33 -51 106 0
54 -33 51 106 0
54 -33 -51 -106 0
-54 33 51 106 0
-54 33 -51 -106 0
-54 -33 51 -106 0
-54 -33 -51 106 0
-54 -33 107 0
-54 -51 107 0
-33 -51 107 0
54 33 -107 0
54 51 -107 0
33 51 -107 0
106 30 50 -108 0
106 30 -50 108 0
106 -30 50 108 0
106 -30 -50 -108 0
-106 30 50 108 0
-106 30 -50 -108 0
-106 -30 50 -108 0
-106 -30 -50 108 0
-106 -30 109 0
-106 -50 109 0
-30 -50 109 0
106 30 -109 0
106 50 -109 0
30 50 -109 0
108 29 46 -110 0
108 29 -46 110 0
108 -29 46 110 0
108 -29 -46 -110 0
-108 29 46 110 0
-108 29 -46 -110 0
-108 -29 46 -110 0
-108 -29 -46 110 0
-108 -29 111 0
-108 -46 111 0
-29 -46 111 0
108 29 -111 0
108 46 -111 0
29 46 -111 0
110 25 45 -112 0
110 25 -45 112 0
110 -25 45 112 0
110 -25 -45 -112 0
-110 25 45 112 0
-110 25 -45 -112 0
-110 -25 45 -112 0
-110 -25 -45 112 0
-110 -25 113 0
-110 -45 113 0
-25 -45 113 0
110 25 -113 0
110 45 -113 0
25 45 -113 0
112 24 40 -114 0
112 24 -40 114 0
112 -24 40 114 0
112 -24 -40 -114 0
-112 24 40 114 0
-112 24 -40 -114 0
-112 -24 40 -114 0
-112 -24 -40 114 0
-112 -24 115 0
-112 -40 115 0
-24 -40 115 0
112 24 -115 0
112 40 -115 0
24 40 -115 0
114 19 39 -116 0
114 19 -39 116 0
114 -19 39 116 0
114 -19 -39 -116 0
-114 19 39 116 0
-114 19 -39 -116 0
-114 -19 39 -116 0
-114 -19 -39 116 0
-114 -19 117 0
-114 -39 117 0
-19 -39 117 0
114 19 -117 0
114 39 -117 0
19 39 -117 0
117 115 113 -118 0
117 115 -113 118 0
117 -115 113 118 0
117 -115 -113 -118 0
-117 115 113 118 0
-117 115 -113 -118 0
-117 -115 113 -118 0
-117 -115 -113 118 0
-117 -115 119 0
-117 -113 119 0
-115 -113 119 0
117 115 -119 0
117 113 -119 0
115 113 -119 0
118 111 109 -120 0
118 111 -109 120 0
118 -111 109 120 0
118 -111 -109 -120 0
-118 111 109 120 0
-118 111 -109 -120 0
-118 -111 109 -120 0
-118 -111 -109 120 0
-118 -111 121 0
-118 -109 121 0
-111 -109 121 0
118 111 -121 0
118 109 -121 0
111 109 -121 0
18 116 1 -122 0
18 116 -1 122 0
18 -116 1 122 0
18 -116 -1 -122 0
-18 116 1 122 0
-18 116 -1 -122 0
-18 -116 1 -122 0
-18 -116 -1 122 0
-18 -116 123 0
-18 -1 123 0
-116 -1 123 0
18 116 -123 0
18 1 -123 0
116 1 -123 0
107 120 123 -124 0
107 120 -123 124 0
107 -120 123 124 0
107 -120 -123 -124 0
-107 120 123 124 0
-107 120 -123 -124 0
-107 -120 123 -124 0
-107 -120 -123 124 0
-107 -120 125 0
-107 -123 125 0
-120 -123 125 0
107 120 -125 0
107 123 -125 0
120 123 -125 0
119 121 125 -126 0
119 121 -125 126 0
119 -121 125 126 0
119 -121 -125 -126 0
-119 121 125 126 0
-119 121 -125 -126 0
-119 -121 125 -126 0
-119 -121 -125 126 0
-119 -121 127 0
-119 -125 127 0
-121 -125 127 0
119 121 -127 0
119 125 -127 0
121 125 -127 0
1 127 -128 0
1 -127 128 0
-1 127 -128 0
-1 -127 128 0
-1 129 0
-1 -127 129 0
-1 -127 129 0
1 -129 0
1 127 -129 0
1 127 -129 0
-129 0
-122 0
-124 0
-126 0
128 0
54 33 51 -130 0
54 33 -51 130 0
54 -33 51 130 0
54 -33 -51 -130 0
-54 33 51 130 0
-54 33 -51 -130 0
-54 -33 51 -130 0
-54 -33 -51 130 0
-54 -33 131 0
-54 -51 131 0
-33 -51 131 0
54 33 -131 0
54 51 -131 0
33 51 -131 0
130 30 50 -132 0
130 30 -50 132 0
130 -30 50 132 0
130 -30 -50 -132 0
-130 30 50 132 0
-130 30 -50 -132 0
-130 -30 50 -132 0
-130 -30 -50 132 0
-130 -30 133 0
-130 -50 133 0
-30 -50 133 0
130 30 -133 0
130 50 -133 0
30 50 -133 0
132 29 46 -134 0
132 29 -46 134 0
132 -29 46 134 0
132 -29 -46 -134 0
-132 29 46 134 0
-132 29 -46 -134 0
-132 -29 46 -134 0
-132 -29 -46 134 0
-132 -29 135 0
-132 -46 135 0
-29 -46 135 0
132 29 -135 0
132 46 -135 0
29 46 -135 0
134 25 45 -136 0
134 25 -45 136 0
134 -25 45 136 0
134 -25 -45 -136 0
-134 25 45 136 0
-134 25 -45 -136 0
-134 -25 45 -136 0
-134 -25 -45 136 0
-134 -25 137 0
-134 -45 137 0
-25 -45 137 0
134 25 -137 0
134 45 -137 0
25 45 -137 0
136 24 40 -138 0
136 24 -40 138 0
136 -24 40 138 0
136 -24 -40 -138 0
-136 24 40 138 0
-136 24 -40 -138 0
-136 -24 40 -138 0
-136 -24 -40 138 0
-136 -24 139 0
-136 -40 139 0
-24 -40 139 0
136 24 -139 0
136 40 -139 0
24 40 -139 0
138 19 39 -140 0
138 19 -39 140 0
138 -19 39 140 0
138 -19 -39 -140 0
-138 19 39 140 0
-138 19 -39 -140 0
-138 -19 39 -140 0
-138 -19 -39 140 0
-138 -19 141 0
-138 -39 141 0
-19 -39 141 0
138 19 -141 0
138 39 -141 0
19 39 -141 0
141 139 137 -142 0
141 139 -137 142 0
141 -139 137 142 0
141 -139 -137 -142 0
-141 139 137 142 0
-141 139 -137 -142 0
-141 -139 137 -142 0
-141 -139 -137 142 0
-141 -139 143 0
-141 -137 143 0
-139 -137 143 0
141 139 -143 0
141 137 -143 0
139 137 -143 0
142 135 133 -144 0
142 135 -133 144 0
142 -135 133 144 0
142 -135 -133 -144 0
-142 135 133 144 0
-142 135 -133 -144 0
-142 -135 133 -144 0
-142 -135 -133 144 0
-142 -135 145 0
-142 -133 145 0
-135 -133 145 0
142 135 -145 0
142 133 -145 0
135 133 -145 0
18 140 1 -146 0
18 140 -1 146 0
18 -140 1 146 0
18 -140 -1 -146 0
-18 140 1 146 0
-18 140 -1 -146 0
-18 -140 1 -146 0
-18 -140 -1 146 0
-18 -140 147 0
-18 -1 147 0
-140 -1 147 0
18 140 -147 0
18 1 -147 0
140 1 -147 0
131 144 147 -148 0
131 144 -147 148 0
131 -144 147 148 0
131 -144 -147 -148 0
-131 144 147 148 0
-131 144 -147 -148 0
-131 -144 147 -148 0
-131 -144 -147 148 0
-131 -144 149 0
-131 -147 149 0
-144 -147 149 0
131 144 -149 0
131 147 -149 0
144 147 -149 0
143 145 149 -150 0
143 145 -149 150 0
143 -145 149 150 0
143 -145 -149 -150 0
-143 145 149 150 0
-143 145 -149 -150 0
-143 -145 149 -150 0
-143 -145 -149 150 0
-143 -145 151 0
-143 -149 151 0
-145 -149 151 0
143 145 -151 0
143 149 -151 0
145 149 -151 0
1 151 -152 0
1 -151 152 0
-1 151 -152 0
-1 -151 152 0
-1 153 0
-1 -151 153 0
-1 -151 153 0
1 -153 0
1 151 -153 0
1 151 -153 0
-153 0
-146 0
-148 0
-150 0
152 0
56 35 53 -154 0
56 35 -53 154 0
56 -35 53 154 0
56 -35 -53 -154 0
-56 35 53 154 0
-56 35 -53 -154 0
-56 -35 53 -154 0
-56 -35 -53 154 0
-56 -35 155 0
-56 -53 155 0
-35 -53 155 0
56 35 -155 0
56 53 -155 0
35 53 -155 0
154 32 49 -156 0
154 32 -49 156 0
154 -32 49 156 0
154 -32 -49 -156 0
-154 32 49 156 0
-154 32 -49 -156 0
-154 -32 49 -156 0
-154 -32 -49 156 0
-154 -32 157 0
-154 -49 157 0
-32 -49 157 0
154 32 -157 0
154 49 -157 0
32 49 -157 0
156 28 47 -158 0
156 28 -47 158 0
156 -28 47 158 0
156 -28 -47 -158 0
-156 28 47 158 0
-156 28 -47 -158 0
-156 -28 47 -158 0
-156 -28 -47 158 0
-156 -28 159 0
-156 -47 159 0
-28 -47 159 0
156 28 -159 0
156 47 -159 0
28 47 -159 0
158 26 44 -160 0
158 26 -44 160 0
158 -26 44 160 0
158 -26 -44 -160 0
-158 26 44 160 0
-158 26 -44 -160 0
-158 -26 44 -160 0
-158 -26 -44 160 0
-158 -26 161 0
-158 -44 161 0
-26 -44 161 0
158 26 -161 0
158 44 -161 0
26 44 -161 0
160 23 41 -162 0
160 23 -41 162 0
160 -23 41 162 0
160 -23 -41 -162 0
-160 23 41 162 0
-160 23 -41 -162 0
-160 -23 41 -162 0
-160 -23 -41 162 0
-160 -23 163 0
-160 -41 163 0
-23 -41 163 0
160 23 -163 0
160 41 -163 0
23 41 -163 0
162 20 38 -164 0
162 20 -38 164 0
162 -20 38 164 0
162 -20 -38 -164 0
-162 20 38 164 0
-162 20 -38 -164 0
-162 -20 38 -164 0
-162 -20 -38 164 0
-162 -20 165 0
-162 -38 165 0
-20 -38 165 0
162 20 -165 0
162 38 -165 0
20 38 -165 0
165 163 161 -166 0
165 163 -161 166 0
165 -163 161 166 0
165 -163 -161 -166 0
-165 163 161 166 0
-165 163 -161 -166 0
-165 -163 161 -166 0
-165 -163 -161 166 0
-165 -163 167 0
-165 -161 167 0
-163 -161 167 0
165 163 -167 0
165 161 -167 0
163 161 -167 0
166 159 157 -168 0
166 159 -157 168 0
166 -159 157 168 0
166 -159 -157 -168 0
-166 159 157 168 0
-166 159 -157 -168 0
-166 -159 157 -168 0
-166 -159 -157 168 0
-166 -159 169 0
-166 -157 169 0
-159 -157 169 0
166 159 -169 0
166 157 -169 0
159 157 -169 0
17 164 1 -170 0
17 164 -1 170 0
17 -164 1 170 0
17 -164 -1 -170 0
-17 164 1 170 0
-17 164 -1 -170 0
-17 -164 1 -170 0
-17 -164 -1 170 0
-17 -164 171 0
-17 -1 171 0
-164 -1 171 0
17 164 -171 0
17 1 -171 0
164 1 -171 0
155 168 171 -172 0
155 168 -171 172 0
155 -168 171 172 0
155 -168 -171 -172 0
-155 168 171 172 0
-155 168 -171 -172 0
-155 -168 171 -172 0
-155 -168 -171 172 0
-155 -168 173 0
-155 -171 173 0
-168 -171 173 0
155 168 -173 0
155 171 -173 0
168 171 -173 0
167 169 173 -174 0
167 169 -173 174 0
167 -169 173 174 0
167 -169 -173 -174 0
-167 169 173 174 0
-167 169 -173 -174 0
-167 -169 173 -174 0
-167 -169 -173 174 0
-167 -169 175 0
-167 -173 175 0
-169 -173 175 0
167 169 -175 0
167 173 -175 0
169 173 -175 0
1 175 -176 0
1 -175 176 0
-1 175 -176 0
-1 -175 176 0
-1 177 0
-1 -175 177 0
-1 -175 177 0
1 -177 0
1 175 -177 0
1 175 -177 0
-177 0
-170 0
-172 0
-174 0
176 0
57 36 55 -178 0
57 36 -55 178 0
57 -36 55 178 0
57 -36 -55 -178 0
-57 36 55 178 0
-57 36 -55 -178 0
-57 -36 55 -178 0
-57 -36 -55 178 0
-57 -36 179 0
-57 -55 179 0
-36 -55 179 0
57 36 -179 0
57 55 -179 0
36 55 -179 0
178 34 52 -180 0
178 34 -52 180 0
178 -34 52 180 0
178 -34 -52 -180 0
-178 34 52 180 0
-178 34 -52 -180 0
-178 -34 52 -180 0
-178 -34 -52 180 0
-178 -34 181 0
-178 -52 181 0
-34 -52 181 0
178 34 -181 0
178 52 -181 0
34 52 -181 0
180 31 48 -182 0
180 31 -48 182 0
180 -31 48 182 0
180 -31 -48 -182 0
-180 31 48 182 0
-180 31 -48 -182 0
-180 -31 48 -182 0
-180 -31 -48 182 0
-180 -31 183 0
-180 -48 183 0
-31 -48 183 0
180 31 -183 0
180 48 -183 0
31 48 -183 0
182 27 43 -184 0
182 27 -43 184 0
182 -27 43 184 0
182 -27 -43 -184 0
-182 27 43 184 0
-182 27 -43 -184 0
-182 -27 43 -184 0
-182 -27 -43 184 0
-182 -27 185 0
-182 -43 185 0
-27 -43 185 0
182 27 -185 0
182 43 -185 0
27 43 -185 0
184 22 42 -186 0
184 22 -42 186 0
184 -22 42 186 0
184 -22 -42 -186 0
-184 22 42 186 0
-184 22 -42 -186 0
-184 -22 42 -186 0
-184 -22 -42 186 0
-184 -22 187 0
-184 -42 187 0
-22 -42 187 0
184 22 -187 0
184 42 -187 0
22 42 -187 0
186 21 37 -188 0
186 21 -37 188 0
186 -21 37 188 0
186 -21 -37 -188 0
-186 21 37 188 0
-186 21 -37 -188 0
-186 -21 37 -188 0
-186 -21 -37 188 0
-186 -21 189 0
-186 -37 189 0
-21 -37 189 0
186 21 -189 0
186 37 -189 0
21 37 -189 0
189 187 185 -190 0
189 187 -185 190 0
189 -187 185 190 0
189 -187 -185 -190 0
-189 187 185 190 0
-189 187 -185 -190 0
-189 -187 185 -190 0
-189 -187 -185 190 0
-189 -187 191 0
-189 -185 191 0
-187 -185 191 0
189 187 -191 0
189 185 -191 0
187 185 -191 0
190 183 181 -192 0
190 183 -181 192 0
190 -183 181 192 0
190 -183 -181 -192 0
-190 183 181 192 0
-190 183 -181 -192 0
-190 -183 181 -192 0
-190 -183 -181 192 0
-190 -183 193 0
-190 -181 193 0
-183 -181 193 0
190 183 -193 0
190 181 -193 0
183 181 -193 0
16 188 1 -194 0
16 188 -1 194 0
16 -188 1 194 0
16 -188 -1 -194 0
-16 188 1 194 0
-16 188 -1 -194 0
-16 -188 1 -194 0
-16 -188 -1 194 0
-16 -188 195 0
-16 -1 195 0
-188 -1 195 0
16 188 -195 0
16 1 -195 0
188 1 -195 0
179 192 195 -196 0
179 192 -195 196 0
179 -192 195 196 0
179 -192 -195 -196 0
-179 192 195 196 0
-179 192 -195 -196 0
-179 -192 195 -196 0
-179 -192 -195 196 0
-179 -192 197 0
-179 -195 197 0
-192 -195 197 0
179 192 -197 0
179 195 -197 0
192 195 -197 0
191 193 197 -198 0
191 193 -197 198 0
191 -193 197 198 0
191 -193 -197 -198 0
-191 193 197 198 0
-191 193 -197 -198 0
-191 -193 197 -198 0
-191 -193 -197 198 0
-191 -193 199 0
-191 -197 199 0
-193 -197 199 0
191 193 -199 0
191 197 -199 0
193 197 -199 0
1 199 -200 0
1 -199 200 0
-1 199 -200 0
-1 -199 200 0
-1 201 0
-1 -199 201 0
-1 -199 201 0
1 -201 0
1 199 -201 0
1 199 -201 0
-201 0
-194 0
-196 0
-198 0
200 0
8 7 6 -202 0
8 7 -6 202 0
8 -7 6 202 0
8 -7 -6 -202 0
-8 7 6 202 0
-8 7 -6 -202 0
-8 -7 6 -202 0
-8 -7 -6 202 0
-8 -7 203 0
-8 -6 203 0
-7 -6 203 0
8 7 -203 0
8 6 -203 0
7 6 -203 0
202 5 4 -204 0
202 5 -4 204 0
202 -5 4 204 0
202 -5 -4 -204 0
-202 5 4 204 0
-202 5 -4 -204 0
-202 -5 4 -204 0
-202 -5 -4 204 0
-202 -5 205 0
-202 -4 205 0
-5 -4 205 0
202 5 -205 0
202 4 -205 0
5 4 -205 0
204 3 2 -206 0
204 3 -2 206 0
204 -3 2 206 0
204 -3 -2 -206 0
-204 3 2 206 0
-204 3 -2 -206 0
-204 -3 2 -206 0
-204 -3 -2 206 0
-204 -3 207 0
-204 -2 207 0
-3 -2 207 0
204 3 -207 0
204 2 -207 0
3 2 -207 0
207 205 203 -208 0
207 205 -203 208 0
207 -205 203 208 0
207 -205 -203 -208 0
-207 205 203 208 0
-207 205 -203 -208 0
-207 -205 203 -208 0
-207 -205 -203 208 0
-207 -205 209 0
-207 -203 209 0
-205 -203 209 0
207 205 -209 0
207 203 -209 0
205 203 -209 0
206 1 -210 0
206 -1 -210 0
-206 1 210 0
-206 -1 210 0
-206 -1 211 0
-206 -1 211 0
-1 211 0
206 1 -211 0
206 1 -211 0
1 -211 0
208 1 211 -212 0
208 1 -211 212 0
208 -1 211 212 0
208 -1 -211 -212 0
-208 1 211 212 0
-208 1 -211 -212 0
-208 -1 211 -212 0
-208 -1 -211 212 0
-208 -1 213 0
-208 -211 213 0
-1 -211 213 0
208 1 -213 0
208 211 -213 0
1 211 -213 0
209 1 213 -214 0
209 1 -213 214 0
209 -1 213 214 0
209 -1 -213 -214 0
-209 1 213 214 0
-209 1 -213 -214 0
-209 -1 213 -214 0
-209 -1 -213 214 0
-209 -1 215 0
-209 -213 215 0
-1 -213 215 0
209 1 -215 0
209 213 -215 0
1 213 -215 0
-215 0
15 14 13 -216 0
15 14 -13 216 0
15 -14 13 216 0
15 -14 -13 -216 0
-15 14 13 216 0
-15 14 -13 -216 0
-15 -14 13 -216 0
-15 -14 -13 216 0
-15 -14 217 0
-15 -13 217 0
-14 -13 217 0
15 14 -217 0
15 13 -217 0
14 13 -217 0
216 12 11 -218 0
216 12 -11 218 0
216 -12 11 218 0
216 -12 -11 -218 0
-216 12 11 218 0
-216 12 -11 -218 0
-216 -12 11 -218 0
-216 -12 -11 218 0
-216 -12 219 0
-216 -11 219 0
-12 -11 219 0
216 12 -219 0
216 11 -219 0
12 11 -219 0
218 10 9 -220 0
218 10 -9 220 0
218 -10 9 220 0
218 -10 -9 -220 0
-218 10 9 220 0
-218 10 -9 -220 0
-218 -10 9 -220 0
-218 -10 -9 220 0
-218 -10 221 0
-218 -9 221 0
-10 -9 221 0
218 10 -221 0
218 9 -221 0
10 9 -221 0
221 219 217 -222 0
221 219 -217 222 0
221 -219 217 222 0
221 -219 -217 -222 0
-221 219 217 222 0
-221 219 -217 -222 0
-221 -219 217 -222 0
-221 -219 -217 222 0
-221 -219 223 0
-221 -217 223 0
-219 -217 223 0
221 219 -223 0
221 217 -223 0
219 217 -223 0
220 1 -224 0
220 -1 -224 0
-220 1 224 0
-220 -1 224 0
-220 -1 225 0
-220 -1 225 0
-1 225 0
220 1 -225 0
220 1 -225 0
1 -225 0
222 1 225 -226 0
222 1 -225 226 0
222 -1 225 226 0
222 -1 -225 -226 0
-222 1 225 226 0
-222 1 -225 -226 0
-222 -1 225 -226 0
-222 -1 -225 226 0
-222 -1 227 0
-222 -225 227 0
-1 -225 227 0
222 1 -227 0
222 225 -227 0
1 225 -227 0
223 1 227 -228 0
223 1 -227 228 0
223 -1 227 228 0
223 -1 -227 -228 0
-223 1 227 228 0
-223 1 -227 -228 0
-223 -1 227 -228 0
-223 -1 -227 228 0
-223 -1 229 0
-223 -227 229 0
-1 -227 229 0
223 1 -229 0
223 227 -229 0
1 227 -229 0
-229 0
-212 210 0
212 -210 0
-214 -210 0
214 210 0
-226 224 0
226 -224 0
-228 -224 0
228 224 0
